     Program PWSCF v.7.4.1 starts on 21Jul2025 at 21: 6:35

     Reading input from espresso.pwi
Warning: card &FCP ignored
Warning: card / ignored
Warning: card &RISM ignored
Warning: card / ignored

     Current dimensions of program PWSCF are:
     Max number of different atomic species (ntypx) = 10
     Max number of k-points (npk) =  40000
     Max angular momentum in pseudopotentials (lmaxx) =  4

     IMPORTANT: XC functional enforced from input :
     Exchange-correlation= PBE
                           (   1   4   3   4   0   0   0)
     Any further DFT definition will be discarded
     Please, verify this is what you really want

     Message from routine setup:
     using ibrav=0 with symmetry is DISCOURAGED, use correct ibrav instead

     Using Slab Decomposition

     bravais-lattice index     =            0
     lattice parameter (alat)  =       6.0093  a.u.
     unit-cell volume          =    2552.4937 (a.u.)^3
     number of atoms/cell      =            3
     number of atomic types    =            2
     number of electrons       =        26.00
     number of Kohn-Sham states=           13
     kinetic-energy cutoff     =      60.0000  Ry
     charge density cutoff     =     480.0000  Ry
     scf convergence threshold =      1.0E-08
     mixing beta               =       0.7000
     number of iterations used =            8  plain     mixing
     energy convergence thresh.=      1.0E-04
     force convergence thresh. =      1.0E-03
     press convergence thresh. =      5.0E-01
     Exchange-correlation= PBE
                           (   1   4   3   4   0   0   0)
     nstep                     =           50

     celldm(1)=   6.009329  celldm(2)=   0.000000  celldm(3)=   0.000000
     celldm(4)=   0.000000  celldm(5)=   0.000000  celldm(6)=   0.000000

     crystal axes: (cart. coord. in units of alat)
               a(1) = (   1.000000   0.000000   0.000000 )
               a(2) = (  -0.500000   0.866025   0.000000 )
               a(3) = (   0.000000   0.000000  13.581761 )

     reciprocal axes: (cart. coord. in units 2 pi/alat)
               b(1) = (  1.000000  0.577350 -0.000000 )
               b(2) = (  0.000000  1.154701  0.000000 )
               b(3) = (  0.000000 -0.000000  0.073628 )

     PseudoPot. # 1 for Mo read from file:
     /home/gu/projects/PymatgenTest/outputs/Mo.upf
     MD5 check sum: e9ff66a0a2b2a26e33b0f56142110bb0
     Pseudo is Norm-conserving, Zval = 14.0
     Generated using ONCVPSP code by D. R. Hamann
     Using radial grid of 1526 points,  6 beta functions with:
                l(1) =   0
                l(2) =   0
                l(3) =   1
                l(4) =   1
                l(5) =   2
                l(6) =   2

     PseudoPot. # 2 for S  read from file:
     /home/gu/projects/PymatgenTest/outputs/S.upf
     MD5 check sum: 88d86576ff6df21479756cfb9bdac1df
     Pseudo is Ultrasoft + core correction, Zval =  6.0
     Generated by new atomic code, or converted to UPF format
     Using radial grid of  907 points,  6 beta functions with:
                l(1) =   0
                l(2) =   0
                l(3) =   1
                l(4) =   1
                l(5) =   2
                l(6) =   2
     Q(r) pseudized with  8 coefficients,  rinner =    1.300   1.300   1.300
                                                       1.300   1.300

     atomic species   valence    mass     pseudopotential
     Mo               14.00    95.95000     Mo( 1.00)
     S                 6.00    32.06000     S ( 1.00)

     12 Sym. Ops. (no inversion) found

   Cartesian axes

     site n.     atom                  positions (alat units)
         1        Mo     tau(   1) = (   0.0000000   0.0000000   6.7908805  )
         2        S      tau(   2) = (   0.5000000   0.2886751   7.2924528  )
         3        S      tau(   3) = (   0.5000000   0.2886751   6.2893082  )

     number of k points=    10
                       cart. coord. in units 2pi/alat
        k(    1) = (   0.0000000   0.0000000   0.0000000), wk =   0.0312500
        k(    2) = (   0.0000000   0.1443376   0.0000000), wk =   0.1875000
        k(    3) = (   0.0000000   0.2886751   0.0000000), wk =   0.1875000
        k(    4) = (   0.0000000   0.4330127   0.0000000), wk =   0.1875000
        k(    5) = (   0.0000000  -0.5773503   0.0000000), wk =   0.0937500
        k(    6) = (   0.1250000   0.2165064   0.0000000), wk =   0.1875000
        k(    7) = (   0.1250000   0.3608439   0.0000000), wk =   0.3750000
        k(    8) = (   0.1250000   0.5051815   0.0000000), wk =   0.3750000
        k(    9) = (   0.2500000   0.4330127   0.0000000), wk =   0.1875000
        k(   10) = (   0.2500000   0.5773503   0.0000000), wk =   0.1875000

     Initial potential from superposition of free atoms

     starting charge      25.9989, renormalised to      26.0000

     negative rho (up, down):  1.040E-05 0.000E+00
     Starting wfcs are   18 randomized atomic wfcs

     Self-consistent Calculation

     iteration #  1     ecut=    60.00 Ry     beta= 0.70
     Davidson diagonalization with overlap
     ethr =  1.00E-02,  avg # of iterations =  2.0

     Threshold (ethr) on eigenvalues was too large:
     Diagonalizing with lowered threshold

     Davidson diagonalization with overlap
     ethr =  2.93E-04,  avg # of iterations =  3.6

     negative rho (up, down):  1.016E-06 0.000E+00

     total energy              =    -185.49566003 Ry
     estimated scf accuracy    <       0.10771832 Ry

[...]

     End of self-consistent calculation

          k = 0.0000 0.0000 0.0000 ( 20139 PWs)   bands (ev):

   -64.4989 -38.6346 -38.4222 -38.4222 -17.6090 -16.4095  -9.1434  -6.0476
    -6.0476  -5.4717  -4.9770  -4.9770  -3.7370

[...]

     highest occupied level (ev):    -3.7211

!    total energy              =    -185.53642839 Ry
     estimated scf accuracy    <          9.6E-09 Ry

     The total energy is the sum of the following terms:
     one-electron contribution =   -3058.45069154 Ry
     hartree contribution      =    1526.66023053 Ry
     xc contribution           =     -32.51593196 Ry
     ewald contribution        =    1378.76996458 Ry

     convergence has been achieved in  17 iterations

[...]

     Forces acting on atoms (cartesian axes, Ry/au):

     atom    1 type  1   force =     0.00000000   -0.00000000    0.00000000
     atom    2 type  2   force =     0.00000000   -0.00000000   -0.02137900
     atom    3 type  2   force =    -0.00000000   -0.00000000    0.02137900

     Total force =     0.030234     Total SCF correction =     0.000206

     Computing stress (Cartesian axis) and pressure

     negative rho (up, down):  9.315E-06 0.000E+00
          total   stress  (Ry/bohr**3)                   (kbar)     P=       -3.81
  -0.00001340   0.00000000  -0.00000000           -1.97        0.00       -0.00
   0.00000000  -0.00001340  -0.00000000            0.00       -1.97       -0.00
  -0.00000000  -0.00000000  -0.00005082           -0.00       -0.00       -7.48

     BFGS Geometry Optimization
     Energy error            =      1.1E-03 Ry
     Gradient error          =      2.1E-02 Ry/Bohr
     Cell gradient error     =      7.5E+00 kbar

     number of scf cycles    =   1
     number of bfgs steps    =   0

     enthalpy           new  =    -185.5364283857 Ry

     new trust radius        =       0.0213789984 bohr
     new conv_thr            =       0.0000000100 Ry

     new unit-cell volume =   2547.54307 a.u.^3 (   377.50694 Ang^3 )
     density =      0.70410 g/cm^3

CELL_PARAMETERS (angstrom)
   3.178934839   0.000000000  -0.000000000
  -1.589467419   2.753038328  -0.000000000
  -0.000000000  -0.000000000  43.135123992

ATOMIC_POSITIONS (angstrom)
Mo              -0.0000000000       -0.0000000000       21.5675619958
S                1.5894674195        0.9176794425       23.1492365289
S                1.5894674195        0.9176794425       19.9858874627

     Writing config-only to output data dir /tmp/MoS2_single.save/ :
     XML data file
     NEW-OLD atomic charge density approx. for the potential
     New effective cutoffs (rho, wfc):  480.98   60.15

[...]

          k =-0.0000-0.5775-0.0000 ( 19992 PWs)   bands (ev):

[...]

     Energy error            =      8.6E-04 Ry
     Gradient error          =      1.2E-02 Ry/Bohr
     Cell gradient error     =      4.2E+00 kbar

[...]

     enthalpy           old  =    -185.5364283857 Ry
     enthalpy           new  =    -185.5372900507 Ry

     CASE: enthalpy          _new < enthalpy          _old

[...]

     Total force =     0.000146     Total SCF correction =     0.000019
     SCF correction compared to forces is large: reduce conv_thr to get better values

[...]

     number of scf cycles    =   5
     number of bfgs steps    =   4

     enthalpy           old  =    -185.5376819744 Ry
     enthalpy           new  =    -185.5376848623 Ry

     CASE: enthalpy          _new < enthalpy          _old

     new trust radius        =       0.0020866030 bohr
     new conv_thr            =            1.0E-10 Ry

     new unit-cell volume =   2544.23137 a.u.^3 (   377.01619 Ang^3 )
     density =      0.70502 g/cm^3

[...]

ATOMIC_POSITIONS (angstrom)
Mo              -0.0000000000       -0.0000000000       21.5325448382
S                1.5897250281        0.9178281729       23.0973928530
S                1.5897250281        0.9178281729       19.9676968234

     Writing config-only to output data dir /tmp/MoS2_single.save/ :
     XML data file
     NEW-OLD atomic charge density approx. for the potential
     New effective cutoffs (rho, wfc):  482.30   60.34

[...]

     Threshold (ethr) on eigenvalues was too large:
     Diagonalizing with lowered threshold

     Davidson diagonalization with overlap
     ethr =  5.42E-10,  avg # of iterations =  5.6

[...]

     Energy error            =      3.9E-06 Ry
     Gradient error          =      3.4E-04 Ry/Bohr
     Cell gradient error     =      4.9E-01 kbar

     bfgs converged in   6 scf cycles and   5 bfgs steps
     (criteria: energy <  1.0E-04 Ry, force <  1.0E-03 Ry/Bohr, cell <  5.0E-01 kbar)

     End of BFGS Geometry Optimization

     Final enthalpy           =    -185.5376887907 Ry

     File /tmp/MoS2_single.bfgs deleted, as requested
Begin final coordinates
     new unit-cell volume =   2544.23137 a.u.^3 (   377.01619 Ang^3 )
     density =      0.70502 g/cm^3

CELL_PARAMETERS (angstrom)
   3.179450056   0.000000000   0.000000000
  -1.589725028   2.753484519   0.000000000
  -0.000000000  -0.000000000  43.065089676

ATOMIC_POSITIONS (angstrom)
Mo              -0.0000000000       -0.0000000000       21.5325448382
S                1.5897250281        0.9178281729       23.0973928530
S                1.5897250281        0.9178281729       19.9676968234
End final coordinates

     Writing config-only to output data dir /tmp/MoS2_single.save/ :
     XML data file

     Final scf calculation at the relaxed structure.
     The G-vectors are recalculated for the final unit cell
     Results may differ from those at the preceding step.

     Using Slab Decomposition

     bravais-lattice index     =            0
     lattice parameter (alat)  =       6.0093  a.u.
     unit-cell volume          =    2544.2314 (a.u.)^3
     number of atoms/cell      =            3
     number of atomic types    =            2
     number of electrons       =        26.00
     number of Kohn-Sham states=           13
     kinetic-energy cutoff     =      60.0000  Ry
     charge density cutoff     =     480.0000  Ry
     scf convergence threshold =      1.0E-10
     mixing beta               =       0.7000
     number of iterations used =            8  plain     mixing
     press convergence thresh. =      5.0E-01
     Exchange-correlation= PBE
                           (   1   4   3   4   0   0   0)

     celldm(1)=   6.009329  celldm(2)=   0.000000  celldm(3)=   0.000000
     celldm(4)=   0.000000  celldm(5)=   0.000000  celldm(6)=   0.000000

     crystal axes: (cart. coord. in units of alat)
               a(1) = (   0.999827   0.000000   0.000000 )
               a(2) = (  -0.499914   0.865876   0.000000 )
               a(3) = (  -0.000000  -0.000000  13.542481 )

     reciprocal axes: (cart. coord. in units 2 pi/alat)
               b(1) = (  1.000173  0.577450  0.000000 )
               b(2) = ( -0.000000  1.154900  0.000000 )
               b(3) = ( -0.000000 -0.000000  0.073842 )

     PseudoPot. # 1 for Mo read from file:
     /home/gu/projects/PymatgenTest/outputs/Mo.upf
     MD5 check sum: e9ff66a0a2b2a26e33b0f56142110bb0
     Pseudo is Norm-conserving, Zval = 14.0
     Generated using ONCVPSP code by D. R. Hamann
     Using radial grid of 1526 points,  6 beta functions with:
                l(1) =   0
                l(2) =   0
                l(3) =   1
                l(4) =   1
                l(5) =   2
                l(6) =   2

     PseudoPot. # 2 for S  read from file:
     /home/gu/projects/PymatgenTest/outputs/S.upf
     MD5 check sum: 88d86576ff6df21479756cfb9bdac1df
     Pseudo is Ultrasoft + core correction, Zval =  6.0
     Generated by new atomic code, or converted to UPF format
     Using radial grid of  907 points,  6 beta functions with:
                l(1) =   0
                l(2) =   0
                l(3) =   1
                l(4) =   1
                l(5) =   2
                l(6) =   2
     Q(r) pseudized with  8 coefficients,  rinner =    1.300   1.300   1.300
                                                       1.300   1.300

     atomic species   valence    mass     pseudopotential
     Mo               14.00    95.95000     Mo( 1.00)
     S                 6.00    32.06000     S ( 1.00)

     12 Sym. Ops. (no inversion) found

   Cartesian axes

     site n.     atom                  positions (alat units)
         1        Mo     tau(   1) = (  -0.0000000  -0.0000000   6.7712405  )
         2        S      tau(   2) = (   0.4999135   0.2886252   7.2633311  )
         3        S      tau(   3) = (   0.4999135   0.2886252   6.2791499  )

     number of k points=    10
                       cart. coord. in units 2pi/alat
        k(    1) = (   0.0000000   0.0000000   0.0000000), wk =   0.0312500
        k(    2) = (  -0.0000000   0.1443625   0.0000000), wk =   0.1875000
        k(    3) = (  -0.0000000   0.2887251   0.0000000), wk =   0.1875000
        k(    4) = (  -0.0000000   0.4330876   0.0000000), wk =   0.1875000
        k(    5) = (   0.0000000  -0.5774501  -0.0000000), wk =   0.0937500
        k(    6) = (   0.1250216   0.2165438   0.0000000), wk =   0.1875000
        k(    7) = (   0.1250216   0.3609063   0.0000000), wk =   0.3750000
        k(    8) = (   0.1250216   0.5052689   0.0000000), wk =   0.3750000
        k(    9) = (   0.2500432   0.4330876   0.0000000), wk =   0.1875000
        k(   10) = (   0.2500432   0.5774501   0.0000000), wk =   0.1875000

     Initial potential from superposition of free atoms

     starting charge      25.9989, renormalised to      26.0000

     negative rho (up, down):  1.131E-05 0.000E+00
     Starting wfcs are   18 randomized atomic wfcs

     Self-consistent Calculation

[...]

     total energy              =    -185.53768700 Ry
     estimated scf accuracy    <          1.3E-10 Ry

     iteration # 31     ecut=    60.00 Ry     beta= 0.70
     Davidson diagonalization with overlap
     ethr =  4.88E-13,  avg # of iterations =  1.7

[...]

     End of self-consistent calculation

[...]

          k =-0.0000 0.4331 0.0000 ( 19915 PWs)   bands (ev):

[...]

          k = 0.2500 0.5775 0.0000 ( 19884 PWs)   bands (ev):

   -64.4508 -38.7425 -38.6338 -38.5558 -15.6268 -15.5376  -8.9305  -8.5690
    -7.5184  -6.8453  -6.6170  -5.6603  -3.7719

     highest occupied level (ev):    -3.6466

!    total energy              =    -185.53768700 Ry
     estimated scf accuracy    <          7.0E-11 Ry

     The total energy is the sum of the following terms:
     one-electron contribution =   -3058.14592425 Ry
     hartree contribution      =    1526.49121922 Ry
     xc contribution           =     -32.56224155 Ry
     ewald contribution        =    1378.67925959 Ry

     convergence has been achieved in  31 iterations

     negative rho (up, down):  9.740E-06 0.000E+00

     Forces acting on atoms (cartesian axes, Ry/au):

     atom    1 type  1   force =     0.00000000   -0.00000000   -0.00000000
     atom    2 type  2   force =     0.00000000   -0.00000000   -0.00034023
     atom    3 type  2   force =    -0.00000000   -0.00000000    0.00034023

     Total force =     0.000481     Total SCF correction =     0.000020

     Computing stress (Cartesian axis) and pressure

     negative rho (up, down):  9.740E-06 0.000E+00
          total   stress  (Ry/bohr**3)                   (kbar)     P=        0.27
   0.00000332  -0.00000000   0.00000000            0.49       -0.00        0.00
   0.00000000   0.00000332   0.00000000            0.00        0.49        0.00
   0.00000000   0.00000000  -0.00000104            0.00        0.00       -0.15

     Writing all to output data dir /tmp/MoS2_single.save/ :
     XML data file, charge density, pseudopotentials, collected wavefunctions

     General routines

   This run was terminated on:  21:26:10  21Jul2025

   JOB DONE.